\ENCODING=ISO-8859-1
\Problem name: ilog.cplex

Minimize
 obj: 2 x0 + 3 x1 + 4 x2 + 5 x3 + 7 x4 + 4 x5 + 3 x6 + x7 + 2 x8 + 6 x9 + 5 x10
      + 4 x11 + 2 x12 + x13 + 3 x14 + x16
Subject To
 c1:  x0 + x5 + x10 >= 1
 c3:  x1 + x6 + x11 >= 1
 c5:  x2 + x7 + x12 >= 1
 c7:  x3 + x8 + x13 >= 1
 c9:  x4 + x9 + x14 >= 1
 c11: - x0 >= -1
 c13: - x1 >= -1
 c15: - x2 >= -1
 c17: - x3 >= -1
 c19: - x4 >= -1
 c21: - x5 >= 0
 c23: - x6 >= 0
 c25: - x7 >= 0
 c26: - x8 >= 0
 c27: - x9 >= 0
 c28: - x10 >= 0
 c29: - x11 >= 0
 c30: - x12 >= 0
 c31: - x13 >= 0
 c32: - x14 >= 0
Bounds
      x16 = 2
End
